c This is QMaxSAT 2017 based on 14.07
c This is Glucose 3.0
c This is MiniSat 2.2.0
c WARNING: for repeatability, setting FPU to use double precision
c card = mrwto, comp = 0, pmodel = 0, narr = 12, mct = 127, verb = 0
cr firstCPXsol 0 0 0
c top = 79249421
c |  Number of variables:    38088                                            |
c |  Number of clauses:      4929333                                          |
c |  Weight of hard clauses: 79249421                                         |
c |  Number of soft clauses: 225288                                           |
c |  Number of unit soft clauses: 0                                           |
c |  Maximum Cardinality (by unit): 1064496408   (0           )               |
c last restart ## conflicts  :  0 738 
o 71474 | cpuTime 0.468804 s
c Sum of weights = 88708034
c A number of soft clauses remained = 18774
c MRWTO encoding for Pseudo-Boolean Constraints
c sizeMax=65536
c No.0 Divisor=10	generated by pow1
c No.1 Divisor=10	generated by pow1
c No.2 Divisor=9	generated by pow1
c No.3 Divisor=10	generated by pow1
c No.4 Divisor=10	generated by pow1
c p0= 10	p1= 10	p2= 9	p3= 10	p4= 10	
c number of digits = 6
c linkingVar[0].size = 10, linkingVar[1].size = 10, linkingVar[2].size = 9, linkingVar[3].size = 10, linkingVar[4].size = 8, linkingVar[5].size = 1, 
c Pseudo-Boolean Constraints: 632789 variables and 5870178 clauses
c Sum of weights = 88708034
c A number of soft clauses remained = 18774
c MRWTO encoding for Pseudo-Boolean Constraints
c sizeMax=65536
c No.0 Divisor=10	generated by pow1
c No.1 Divisor=10	generated by pow1
c No.2 Divisor=9	generated by pow1
c No.3 Divisor=10	generated by pow1
c No.4 Divisor=10	generated by pow1
c p0= 10	p1= 10	p2= 9	p3= 10	p4= 10	
c number of digits = 6
c linkingVar[0].size = 10, linkingVar[1].size = 10, linkingVar[2].size = 9, linkingVar[3].size = 10, linkingVar[4].size = 8, linkingVar[5].size = 1, 
c Pseudo-Boolean Constraints: 632789 variables and 5870178 clauses
c Sum of weights = 88708034
c A number of soft clauses remained = 18774
c MRWTO encoding for Pseudo-Boolean Constraints
c sizeMax=65536
c No.0 Divisor=10	generated by pow1
c No.1 Divisor=10	generated by pow1
c No.2 Divisor=9	generated by pow1
c No.3 Divisor=10	generated by pow1
c No.4 Divisor=10	generated by pow1
c p0= 10	p1= 10	p2= 9	p3= 10	p4= 10	
c number of digits = 6
c linkingVar[0].size = 10, linkingVar[1].size = 10, linkingVar[2].size = 9, linkingVar[3].size = 10, linkingVar[4].size = 8, linkingVar[5].size = 1, 
c Pseudo-Boolean Constraints: 632789 variables and 5870178 clauses
c Sum of weights = 88708034
c A number of soft clauses remained = 18774
c MRWTO encoding for Pseudo-Boolean Constraints
c sizeMax=65536
c No.0 Divisor=10	generated by pow1
c No.1 Divisor=10	generated by pow1
c No.2 Divisor=9	generated by pow1
c No.3 Divisor=10	generated by pow1
c No.4 Divisor=10	generated by pow1
c p0= 10	p1= 10	p2= 9	p3= 10	p4= 10	
c number of digits = 6
c linkingVar[0].size = 10, linkingVar[1].size = 10, linkingVar[2].size = 9, linkingVar[3].size = 10, linkingVar[4].size = 8, linkingVar[5].size = 1, 
c Pseudo-Boolean Constraints: 632789 variables and 5870178 clauses
c Sum of weights = 88708034
c A number of soft clauses remained = 18774
c MRWTO encoding for Pseudo-Boolean Constraints
c sizeMax=65536
c No.0 Divisor=10	generated by pow1
c No.1 Divisor=10	generated by pow1
c No.2 Divisor=9	generated by pow1
c No.3 Divisor=10	generated by pow1
c No.4 Divisor=10	generated by pow1
c p0= 10	p1= 10	p2= 9	p3= 10	p4= 10	
c number of digits = 6
c linkingVar[0].size = 10, linkingVar[1].size = 10, linkingVar[2].size = 9, linkingVar[3].size = 10, linkingVar[4].size = 8, linkingVar[5].size = 1, 
c Pseudo-Boolean Constraints: 632789 variables and 5870178 clauses
c Sum of weights = 88708034
c A number of soft clauses remained = 18774
c MRWTO encoding for Pseudo-Boolean Constraints
c sizeMax=65536
c No.0 Divisor=10	generated by pow1
c No.1 Divisor=10	generated by pow1
c No.2 Divisor=9	generated by pow1
c No.3 Divisor=10	generated by pow1
c No.4 Divisor=10	generated by pow1
c p0= 10	p1= 10	p2= 9	p3= 10	p4= 10	
c number of digits = 6
c linkingVar[0].size = 10, linkingVar[1].size = 10, linkingVar[2].size = 9, linkingVar[3].size = 10, linkingVar[4].size = 8, linkingVar[5].size = 1, 
c Pseudo-Boolean Constraints: 632789 variables and 5870178 clauses
c Sum of weights = 88708034
c A number of soft clauses remained = 18774
c MRWTO encoding for Pseudo-Boolean Constraints
c sizeMax=65536
c No.0 Divisor=10	generated by pow1
c No.1 Divisor=10	generated by pow1
c No.2 Divisor=9	generated by pow1
c No.3 Divisor=10	generated by pow1
c No.4 Divisor=10	generated by pow1
c p0= 10	p1= 10	p2= 9	p3= 10	p4= 10	
c number of digits = 6
c linkingVar[0].size = 10, linkingVar[1].size = 10, linkingVar[2].size = 9, linkingVar[3].size = 10, linkingVar[4].size = 8, linkingVar[5].size = 1, 
c Pseudo-Boolean Constraints: 632789 variables and 5870178 clauses
c Sum of weights = 88708034
c A number of soft clauses remained = 18774
c MRWTO encoding for Pseudo-Boolean Constraints
c sizeMax=65536
c No.0 Divisor=10	generated by pow1
c No.1 Divisor=10	generated by pow1
c No.2 Divisor=9	generated by pow1
c No.3 Divisor=10	generated by pow1
c No.4 Divisor=10	generated by pow1
c p0= 10	p1= 10	p2= 9	p3= 10	p4= 10	
c number of digits = 6
c linkingVar[0].size = 10, linkingVar[1].size = 10, linkingVar[2].size = 9, linkingVar[3].size = 10, linkingVar[4].size = 8, linkingVar[5].size = 1, 
c Pseudo-Boolean Constraints: 632789 variables and 5870178 clauses
c Sum of weights = 88708034
c A number of soft clauses remained = 18774
c MRWTO encoding for Pseudo-Boolean Constraints
c sizeMax=65536
c No.0 Divisor=10	generated by pow1
c No.1 Divisor=10	generated by pow1
c No.2 Divisor=9	generated by pow1
c No.3 Divisor=10	generated by pow1
c No.4 Divisor=10	generated by pow1
c p0= 10	p1= 10	p2= 9	p3= 10	p4= 10	
c number of digits = 6
c linkingVar[0].size = 10, linkingVar[1].size = 10, linkingVar[2].size = 9, linkingVar[3].size = 10, linkingVar[4].size = 8, linkingVar[5].size = 1, 
c Pseudo-Boolean Constraints: 632789 variables and 5870178 clauses
c Sum of weights = 88708034
c A number of soft clauses remained = 18774
c MRWTO encoding for Pseudo-Boolean Constraints
c sizeMax=65536
c No.0 Divisor=10	generated by pow1
c No.1 Divisor=10	generated by pow1
c No.2 Divisor=9	generated by pow1
c No.3 Divisor=10	generated by pow1
c No.4 Divisor=10	generated by pow1
c p0= 10	p1= 10	p2= 9	p3= 10	p4= 10	
c number of digits = 6
c linkingVar[0].size = 10, linkingVar[1].size = 10, linkingVar[2].size = 9, linkingVar[3].size = 10, linkingVar[4].size = 8, linkingVar[5].size = 1, 
c Pseudo-Boolean Constraints: 632789 variables and 5870178 clauses
c Sum of weights = 88708034
c A number of soft clauses remained = 18774
c MRWTO encoding for Pseudo-Boolean Constraints
c sizeMax=65536
c No.0 Divisor=10	generated by pow1
c No.1 Divisor=10	generated by pow1
c No.2 Divisor=9	generated by pow1
c No.3 Divisor=10	generated by pow1
c No.4 Divisor=10	generated by pow1
c p0= 10	p1= 10	p2= 9	p3= 10	p4= 10	
c number of digits = 6
c linkingVar[0].size = 10, linkingVar[1].size = 10, linkingVar[2].size = 9, linkingVar[3].size = 10, linkingVar[4].size = 8, linkingVar[5].size = 1, 
c Pseudo-Boolean Constraints: 632789 variables and 5870178 clauses
c Sum of weights = 88708034
c A number of soft clauses remained = 18774
c MRWTO encoding for Pseudo-Boolean Constraints
c sizeMax=65536
c No.0 Divisor=10	generated by pow1
c No.1 Divisor=10	generated by pow1
c No.2 Divisor=9	generated by pow1
c No.3 Divisor=10	generated by pow1
c No.4 Divisor=10	generated by pow1
c p0= 10	p1= 10	p2= 9	p3= 10	p4= 10	
c number of digits = 6
c linkingVar[0].size = 10, linkingVar[1].size = 10, linkingVar[2].size = 9, linkingVar[3].size = 10, linkingVar[4].size = 8, linkingVar[5].size = 1, 
c Pseudo-Boolean Constraints: 632789 variables and 5870178 clauses
s UNKNOWN
c Search is stopped by a limit (maybe time-limit)
cr positiVarArr: [ | 13(1->2) | 152(1->3) | 291(1->4) | 430(1->5) | 569(1->6) | 708(1->7) | 847(1->8) | 986(1->9) | 1125(1->10) | 1264(1->11) | 1403(1->12) | 1542(1->13) | 1681(2->14) | 1820(3->15) | 1959(4->16) | 2098(5->17) | 2237(6->18) | 2376(7->19) | 2515(8->20) | 2654(9->21) | 2793(10->22) | 2932(11->23) | 3071(12->24) | 3210(13->25) | 3349(14->26) | 3488(15->27) | 3627(16->28) | 3766(17->29) | 3905(18->30) | 4044(19->31) | 4183(20->32) | 4322(21->33) | 4461(22->34) | 4600(23->35) | 4739(24->36) | 4878(25->37) | 5017(26->38) | 5156(27->39) | 5295(28->40) | 5434(29->41) | 5573(30->42) | 5712(31->43) | 5851(32->44) | 5990(33->45) | 6129(34->46) | 6268(35->47) | 6407(36->48) | 6546(37->49) | 6685(38->50) | 6824(39->51) | 6963(40->52) | 7102(41->53) | 7241(42->54) | 7380(43->55) | 7519(44->56) | 7658(45->57) | 7797(46->58) | 7936(47->59) | 8075(48->60) | 8214(49->61) | 8353(50->62) | 8492(51->63) | 8631(52->64) | 8770(53->65) | 8909(54->66) | 9048(55->67) | 9187(56->68) | 9326(57->69) | 9465(58->70) | 9604(59->71) | 9743(60->72) | 9882(61->73) | 10021(62->74) | 10160(63->75) | 10299(64->76) | 10438(65->77) | 10577(66->78) | 10716(67->79) | 10855(68->80) | 10994(69->81) | 11133(70->82) | 11272(71->83) | 11411(72->84) | 11550(73->85) | 11689(74->86) | 11828(75->87) | 11967(76->88) | 12106(77->89) | 12245(78->90) | 12384(79->91) | 12523(80->92) | 12662(81->93) | 12801(82->94) | 12940(83->95) | 13079(84->96) | 13218(85->97) | 13357(86->98) | 13496(87->99) | 13635(88->100) | 13774(89->101) | 13913(90->102) | 14052(91->103) | 14191(92->104) | 14330(93->105) | 14469(94->106) | 14608(95->107) | 14747(96->108) | 14886(97->109) | 15025(98->110) | 15164(99->111) | 15303(100->112) | 15442(101->113) | 15581(102->114) | 15720(103->115) | 15859(104->116) | 15998(105->117) | 16137(106->118) | 16276(107->119) | 16415(108->120) | 16554(109->121) | 16693(110->122) | 16832(111->123) | 16971(112->124) | 17110(113->125) | 17249(114->126) | 17388(115->127) | 17400(116->1) | 17537(117->1) | 17674(118->1) | 17811(119->1) | 17948(120->1) | 18085(121->1) | 18222(122->1) | 18359(123->1) | 18496(124->1) | 18633(125->1) | 18770(126->1) | 18907(127->1) | ]
cr the 1-th chain: [ 1->2->14->26->38->50->62->74->86->98->110->122->1 ] (#non-depot=11) {#cumul.=12}
cr the 2-th chain: [ 1->3->15->27->39->51->63->75->87->99->111->123->1 ] (#non-depot=11) {#cumul.=23}
cr the 3-th chain: [ 1->4->16->28->40->52->64->76->88->100->112->124->1 ] (#non-depot=11) {#cumul.=34}
cr the 4-th chain: [ 1->5->17->29->41->53->65->77->89->101->113->125->1 ] (#non-depot=11) {#cumul.=45}
cr the 5-th chain: [ 1->6->18->30->42->54->66->78->90->102->114->126->1 ] (#non-depot=11) {#cumul.=56}
cr the 6-th chain: [ 1->7->19->31->43->55->67->79->91->103->115->127->1 ] (#non-depot=11) {#cumul.=67}
cr the 7-th chain: [ 1->8->20->32->44->56->68->80->92->104->116->1 ] (#non-depot=10) {#cumul.=77}
cr the 8-th chain: [ 1->9->21->33->45->57->69->81->93->105->117->1 ] (#non-depot=10) {#cumul.=87}
cr the 9-th chain: [ 1->10->22->34->46->58->70->82->94->106->118->1 ] (#non-depot=10) {#cumul.=97}
cr the 10-th chain: [ 1->11->23->35->47->59->71->83->95->107->119->1 ] (#non-depot=10) {#cumul.=107}
cr the 11-th chain: [ 1->12->24->36->48->60->72->84->96->108->120->1 ] (#non-depot=10) {#cumul.=117}
cr the 12-th chain: [ 1->13->25->37->49->61->73->85->97->109->121->1 ] (#non-depot=10) {#cumul.=127}
c Latest Answer = 0 by 1 loops
c restarts              : 4961
c conflicts             : 672799         (187 /sec)
c decisions             : 112055482      (0.00 % random) (31140 /sec)
c propagations          : 27069534758    (7522463 /sec)
c conflict literals     : 81884373       (29.13 % deleted)
c Memory used           : 5388.00 MB
c CPU time              : 3598.49 s
